(set-logic QF_SLIA)
(declare-fun var0 () String)
(assert (str.in_re var0 (re.++ ((_ re.loop 2 507) (re.++ (re.union (str.to_re "Tm") (re.union (str.to_re "KA") (re.union (str.to_re "Qr?") (str.to_re "`")))) (re.++ (re.union (str.to_re "S") (re.union (str.to_re "n") (re.union (str.to_re "K*F") (str.to_re "h*~")))) (re.++ (re.union (str.to_re "Ov>") (re.union (str.to_re ";\\") (re.union (str.to_re "1") (str.to_re "5")))) (re.union (str.to_re "+X;") (re.union (str.to_re "@") (re.union (str.to_re "?") (str.to_re "0lX")))))))) (re.++ ((_ re.loop 11 229) (re.++ (re.union (str.to_re "_4O") (re.union (str.to_re "L") (re.union (str.to_re "'") (str.to_re "d")))) (re.++ (re.union (str.to_re "rG") (re.union (str.to_re "d$") (re.union (str.to_re "dP_") (str.to_re "\\:'")))) (re.++ (re.union (str.to_re "|") (re.union (str.to_re ")") (re.union (str.to_re "D") (str.to_re "UM4")))) (re.union (str.to_re "U=") (re.union (str.to_re "Sd") (re.union (str.to_re "{A") (str.to_re "|")))))))) (re.++ ((_ re.loop 18 625) (re.++ (re.union (str.to_re "e") (re.union (str.to_re "X;") (re.union (str.to_re "5") (str.to_re "+")))) (re.++ (re.union (str.to_re "V.") (re.union (str.to_re "Su") (re.union (str.to_re "`") (str.to_re "`K")))) (re.++ (re.union (str.to_re "kP>") (re.union (str.to_re "S2") (re.union (str.to_re "kz") (str.to_re "-1t")))) (re.union (str.to_re "U") (re.union (str.to_re "sP") (re.union (str.to_re "\u0022bc") (str.to_re ",Tu")))))))) ((_ re.loop 6 527) (re.++ (re.union (str.to_re "_nq") (re.union (str.to_re "]6I") (re.union (str.to_re ":V") (str.to_re "rY\u0022")))) (re.++ (re.union (str.to_re "<du") (re.union (str.to_re "\u00223") (re.union (str.to_re "?") (str.to_re "j")))) (re.++ (re.union (str.to_re "!+&") (re.union (str.to_re "$?") (re.union (str.to_re "FJ^") (str.to_re "h")))) (re.union (str.to_re "#:") (re.union (str.to_re "WV") (re.union (str.to_re "2") (str.to_re "/h$")))))))))))))
(assert (not (str.in_re var0 (re.++ ((_ re.loop 16 974) (re.++ (re.union (str.to_re "K}E") (re.union (str.to_re "9B") (re.union (str.to_re "B") (str.to_re "kA")))) (re.++ (re.union (str.to_re "E%N") (re.union (str.to_re "w") (re.union (str.to_re ";") (str.to_re "h!0")))) (re.++ (re.union (str.to_re "R") (re.union (str.to_re "9[V") (re.union (str.to_re "V") (str.to_re "JnY")))) (re.union (str.to_re "u") (re.union (str.to_re "c'") (re.union (str.to_re "YZ") (str.to_re ">eH")))))))) (re.++ ((_ re.loop 11 61) (re.++ (re.union (str.to_re "+FQ") (re.union (str.to_re "oKn") (re.union (str.to_re "9q") (str.to_re "a")))) (re.++ (re.union (str.to_re "i0") (re.union (str.to_re "?") (re.union (str.to_re "6<") (str.to_re "N")))) (re.++ (re.union (str.to_re "JP") (re.union (str.to_re "3{") (re.union (str.to_re "7A-") (str.to_re "1")))) (re.union (str.to_re "h") (re.union (str.to_re "7*") (re.union (str.to_re "bR\u0022") (str.to_re "5")))))))) (re.++ ((_ re.loop 17 762) (re.++ (re.union (str.to_re ")") (re.union (str.to_re "nzz") (re.union (str.to_re "+F") (str.to_re "S)L")))) (re.++ (re.union (str.to_re "%G") (re.union (str.to_re "A=I") (re.union (str.to_re "j`$") (str.to_re "/U")))) (re.++ (re.union (str.to_re "hX") (re.union (str.to_re "Q.j") (re.union (str.to_re "r") (str.to_re "U")))) (re.union (str.to_re "Cz") (re.union (str.to_re "i/+") (re.union (str.to_re "CC") (str.to_re "e3z")))))))) ((_ re.loop 14 679) (re.++ (re.union (str.to_re "X$") (re.union (str.to_re "Y") (re.union (str.to_re "*l") (str.to_re "Q")))) (re.++ (re.union (str.to_re "s&") (re.union (str.to_re "`o") (re.union (str.to_re "LG") (str.to_re "d,")))) (re.++ (re.union (str.to_re ".<:") (re.union (str.to_re "8tU") (re.union (str.to_re "~`-") (str.to_re "eo0")))) (re.union (str.to_re "fk(") (re.union (str.to_re "v") (re.union (str.to_re "9H|") (str.to_re "L"))))))))))))))
(assert (not (str.in_re var0 (re.++ (re.* re.allchar) (re.++ (re.union (str.to_re "<") (re.union (str.to_re ">") (re.union (str.to_re "'") (re.union (str.to_re "\u0022") (str.to_re "&"))))) (re.* re.allchar))))))
(assert (<= 50 (str.len var0)))
(check-sat)
(get-model)
